
Gurobi 9.0.3 (win64) logging started Sun Jan  2 09:42:33 2022

Changed value of parameter LogFile to Results/sslp2_30_70_200_var_BendersBnC.log
   Prev:   Default: 
Changed value of parameter Heuristics to 0.0
   Prev: 0.05  Min: 0.0  Max: 1.0  Default: 0.05
Changed value of parameter lazyConstraints to 1
   Prev: 0  Min: 0  Max: 1  Default: 0
Changed value of parameter timeLimit to 7175.832853317261
   Prev: inf  Min: 0.0  Max: inf  Default: inf
Gurobi Optimizer version 9.0.3 build v9.0.3rc0 (win64)
Optimize a model with 3204 rows, 260 columns and 131578 nonzeros
Model fingerprint: 0x4ede4688
Variable types: 230 continuous, 30 integer (30 binary)
Coefficient statistics:
  Matrix range     [1e-13, 7e+05]
  Objective range  [5e-03, 4e+01]
  Bounds range     [1e+00, 1e+00]
  RHS range        [4e-15, 3e+04]
Warning: Model contains large matrix coefficient range
         Consider reformulating model or setting NumericFocus parameter
         to avoid numerical issues.
Presolve added 0 rows and 5 columns
Presolve removed 795 rows and 0 columns
Presolve time: 0.08s
Presolved: 2409 rows, 265 columns, 61540 nonzeros
Variable types: 234 continuous, 31 integer (30 binary)

Root relaxation: objective -8.185562e+02, 639 iterations, 0.13 seconds

    Nodes    |    Current Node    |     Objective Bounds      |     Work
 Expl Unexpl |  Obj  Depth IntInf | Incumbent    BestBd   Gap | It/Node Time

     0     0 -818.55618    0   27          - -818.55618      -     -    0s
     0     0 -816.24327    0   24          - -816.24327      -     -    0s
     0     0 -815.88337    0   24          - -815.88337      -     -    0s
     0     0 -815.85780    0   22          - -815.85780      -     -    0s
     0     0 -815.85383    0   21          - -815.85383      -     -    0s
     0     0 -815.85302    0   21          - -815.85302      -     -    0s
     0     0 -815.12545    0   25          - -815.12545      -     -    0s
     0     0 -814.73865    0   22          - -814.73865      -     -    0s
     0     0 -814.51200    0   23          - -814.51200      -     -    0s
     0     0 -814.40499    0   25          - -814.40499      -     -    0s
     0     0 -814.34073    0   24          - -814.34073      -     -    0s
     0     0 -814.12338    0   25          - -814.12338      -     -    0s
     0     0 -813.98902    0   24          - -813.98902      -     -    1s
     0     0 -813.93485    0   24          - -813.93485      -     -    1s
     0     0 -813.90867    0   23          - -813.90867      -     -    1s
     0     0 -813.85842    0   23          - -813.85842      -     -    1s
     0     0 -813.84544    0   25          - -813.84544      -     -    1s
     0     0 -813.83435    0   24          - -813.83435      -     -    1s
     0     0 -813.82610    0   23          - -813.82610      -     -    1s
     0     0 -813.82327    0   25          - -813.82327      -     -    1s
     0     0 -813.81979    0   24          - -813.81979      -     -    1s
     0     0 -813.81779    0   24          - -813.81779      -     -    1s
     0     0 -813.80996    0   25          - -813.80996      -     -    1s
     0     0 -813.80759    0   25          - -813.80759      -     -    1s
     0     0 -813.80600    0   23          - -813.80600      -     -    1s
     0     0 -813.80572    0   25          - -813.80572      -     -    1s
     0     0 -813.54308    0   24          - -813.54308      -     -    1s
     0     0 -813.47965    0   21          - -813.47965      -     -    1s
     0     0 -813.43779    0   21          - -813.43779      -     -    1s
     0     0 -813.41551    0   23          - -813.41551      -     -    1s
     0     0 -813.40019    0   25          - -813.40019      -     -    1s
     0     0 -813.39288    0   25          - -813.39288      -     -    1s
     0     0 -813.38630    0   23          - -813.38630      -     -    1s
     0     0 -813.38419    0   24          - -813.38419      -     -    1s
     0     0 -813.38191    0   24          - -813.38191      -     -    1s
     0     0 -813.38073    0   24          - -813.38073      -     -    1s
     0     0 -813.24801    0   24          - -813.24801      -     -    1s
     0     0 -813.16665    0   23          - -813.16665      -     -    1s
     0     0 -813.13169    0   23          - -813.13169      -     -    1s
     0     0 -813.11112    0   23          - -813.11112      -     -    1s
     0     0 -813.09400    0   24          - -813.09400      -     -    1s
     0     0 -813.08630    0   25          - -813.08630      -     -    1s
     0     0 -813.08370    0   25          - -813.08370      -     -    1s
     0     0 -813.08137    0   25          - -813.08137      -     -    1s
     0     0 -813.08099    0   24          - -813.08099      -     -    1s
     0     0 -812.98600    0   24          - -812.98600      -     -    2s
     0     0 -812.95485    0   24          - -812.95485      -     -    2s
     0     0 -812.93949    0   23          - -812.93949      -     -    2s
     0     0 -812.93151    0   24          - -812.93151      -     -    2s
     0     0 -812.92713    0   22          - -812.92713      -     -    2s
     0     0 -812.92422    0   24          - -812.92422      -     -    2s
     0     0 -812.92178    0   24          - -812.92178      -     -    2s
     0     0 -812.91976    0   23          - -812.91976      -     -    2s
     0     0 -812.91835    0   24          - -812.91835      -     -    2s
     0     0 -812.83746    0   23          - -812.83746      -     -    2s
     0     0 -812.81044    0   24          - -812.81044      -     -    2s
     0     0 -812.78605    0   23          - -812.78605      -     -    2s
     0     0 -812.77201    0   23          - -812.77201      -     -    2s
     0     0 -812.76732    0   23          - -812.76732      -     -    2s
     0     0 -812.76575    0   24          - -812.76575      -     -    2s
     0     0 -812.71008    0   25          - -812.71008      -     -    2s
     0     0 -812.69976    0   25          - -812.69976      -     -    2s
     0     0 -812.68872    0   23          - -812.68872      -     -    2s
     0     0 -812.67554    0   23          - -812.67554      -     -    2s
     0     0 -812.67269    0   23          - -812.67269      -     -    2s
     0     0 -812.67128    0   23          - -812.67128      -     -    2s
     0     0 -812.61295    0   24          - -812.61295      -     -    2s
     0     0 -812.60489    0   22          - -812.60489      -     -    2s
     0     0 -812.60129    0   23          - -812.60129      -     -    2s
     0     0 -812.59549    0   23          - -812.59549      -     -    2s
     0     0 -812.59150    0   23          - -812.59150      -     -    2s
     0     0 -812.58852    0   23          - -812.58852      -     -    2s
     0     0 -812.58831    0   23          - -812.58831      -     -    2s
     0     0 -812.56207    0   23          - -812.56207      -     -    3s
     0     0 -812.54229    0   23          - -812.54229      -     -    3s
     0     0 -812.52990    0   21          - -812.52990      -     -    3s
     0     0 -812.52481    0   25          - -812.52481      -     -    3s
     0     0 -812.52087    0   24          - -812.52087      -     -    3s
     0     0 -812.51848    0   25          - -812.51848      -     -    3s
     0     0 -812.51062    0   26          - -812.51062      -     -    3s
     0     0 -812.50917    0   25          - -812.50917      -     -    3s
     0     0 -812.48753    0   24          - -812.48753      -     -    3s
     0     0 -812.47650    0   26          - -812.47650      -     -    3s
     0     0 -812.47147    0   25          - -812.47147      -     -    3s
     0     0 -812.46791    0   26          - -812.46791      -     -    3s
     0     0 -812.46227    0   21          - -812.46227      -     -    3s
     0     0 -812.45714    0   22          - -812.45714      -     -    3s
     0     0 -812.45569    0   21          - -812.45569      -     -    3s
     0     0 -812.44303    0   25          - -812.44303      -     -    3s
     0     0 -812.43851    0   24          - -812.43851      -     -    3s
     0     0 -812.43408    0   24          - -812.43408      -     -    3s
     0     0 -812.42910    0   25          - -812.42910      -     -    3s
     0     0 -812.42879    0   25          - -812.42879      -     -    3s
     0     0 -812.40307    0   24          - -812.40307      -     -    3s
     0     0 -812.39258    0   23          - -812.39258      -     -    3s
     0     0 -812.38002    0   23          - -812.38002      -     -    3s
     0     0 -812.37251    0   25          - -812.37251      -     -    3s
     0     0 -812.36932    0   24          - -812.36932      -     -    3s
     0     0 -812.36768    0   24          - -812.36768      -     -    3s
     0     0 -812.36081    0   23          - -812.36081      -     -    4s
     0     0 -812.35757    0   21          - -812.35757      -     -    4s
     0     0 -812.35339    0   23          - -812.35339      -     -    4s
     0     0 -812.34933    0   20          - -812.34933      -     -    4s
     0     0 -812.34127    0   21          - -812.34127      -     -    4s
     0     0 -812.33775    0   21          - -812.33775      -     -    4s
     0     0 -812.33623    0   21          - -812.33623      -     -    4s
     0     0 -812.32854    0   22          - -812.32854      -     -    4s
     0     0 -812.32595    0   22          - -812.32595      -     -    4s
     0     0 -812.32249    0   22          - -812.32249      -     -    4s
     0     0 -812.31807    0   25          - -812.31807      -     -    4s
     0     0 -812.31599    0   25          - -812.31599      -     -    4s
     0     0 -812.31393    0   23          - -812.31393      -     -    4s
     0     0 -812.31285    0   25          - -812.31285      -     -    4s
     0     0 -812.30720    0   22          - -812.30720      -     -    4s
     0     0 -812.30642    0   22          - -812.30642      -     -    4s
     0     0 -812.30004    0   22          - -812.30004      -     -    4s
     0     0 -812.29670    0   23          - -812.29670      -     -    4s
     0     0 -812.29119    0   20          - -812.29119      -     -    4s
     0     0 -812.28942    0   22          - -812.28942      -     -    4s
     0     0 -812.26339    0   21          - -812.26339      -     -    4s
     0     0 -812.25122    0   22          - -812.25122      -     -    4s
     0     0 -812.23903    0   21          - -812.23903      -     -    4s
     0     0 -812.23153    0   20          - -812.23153      -     -    4s
     0     0 -812.22987    0   21          - -812.22987      -     -    4s
     0     0 -812.22460    0   21          - -812.22460      -     -    4s
     0     0 -812.20961    0   21          - -812.20961      -     -    4s
     0     0 -812.19817    0   22          - -812.19817      -     -    4s
     0     0 -812.19472    0   22          - -812.19472      -     -    4s
     0     0 -812.18989    0   23          - -812.18989      -     -    4s
     0     0 -812.18874    0   23          - -812.18874      -     -    4s
     0     0 -812.15927    0   20          - -812.15927      -     -    5s
     0     0 -812.13821    0   23          - -812.13821      -     -    5s
     0     0 -812.12910    0   24          - -812.12910      -     -    5s
     0     0 -812.12046    0   22          - -812.12046      -     -    5s
     0     0 -812.11914    0   23          - -812.11914      -     -    5s
     0     0 -812.09762    0   25          - -812.09762      -     -    5s
     0     0 -812.09101    0   24          - -812.09101      -     -    5s
     0     0 -812.08881    0   24          - -812.08881      -     -    5s
     0     0 -812.08785    0   26          - -812.08785      -     -    5s
     0     0 -812.03817    0   24          - -812.03817      -     -    5s
     0     0 -812.02775    0   26          - -812.02775      -     -    5s
     0     0 -812.02499    0   24          - -812.02499      -     -    5s
     0     0 -812.02364    0   26          - -812.02364      -     -    5s
     0     0 -812.01679    0   25          - -812.01679      -     -    5s
     0     0 -812.01009    0   25          - -812.01009      -     -    5s
     0     0 -812.00537    0   25          - -812.00537      -     -    5s
     0     0 -812.00465    0   25          - -812.00465      -     -    5s
     0     0 -811.99425    0   25          - -811.99425      -     -    5s
     0     0 -811.99170    0   24          - -811.99170      -     -    5s
     0     0 -811.99039    0   25          - -811.99039      -     -    5s
     0     0 -811.97731    0   22          - -811.97731      -     -    6s
     0     0 -811.96846    0   22          - -811.96846      -     -    6s
     0     0 -811.96694    0   21          - -811.96694      -     -    6s
     0     0 -811.95810    0   21          - -811.95810      -     -    6s
     0     0 -811.95810    0   21          - -811.95810      -     -    6s
     0     2 -811.95810    0   21          - -811.95810      -     -    6s
*   57    53              30    -419.8849899 -811.94907  93.4%  60.8   10s
*   58    53              30    -504.4699873 -811.94907  61.0%  63.2   11s
*   69    58              30    -522.7199869 -811.94534  55.3%  69.1   18s
*   72    57              30    -527.1549872 -811.92538  54.0%  71.7   20s
*   77    58              30    -552.4299855 -811.91566  47.0%  76.2   23s
   127   106 -801.94112   26    4 -552.42999 -811.91566  47.0%  72.0   25s
   136   106 -800.62667   30    - -552.42999 -811.91566  47.0%  71.4   30s
   151   113 -771.31893   29    - -552.42999 -811.83615  47.0%  71.3   35s
*  158   117              30    -560.6499856 -811.83615  44.8%  74.2   39s
*  159   117              30    -586.0999849 -811.83615  38.5%  75.1   40s
*  165   119              30    -593.9449843 -811.81805  36.7%  74.7   43s
   185   134 -806.51282   14    7 -593.94498 -811.81805  36.7%  74.0   45s
   202   140 -805.01436   18    5 -593.94498 -811.81805  36.7%  74.1   51s
   218   150 -801.19127   23    4 -593.94498 -811.81805  36.7%  76.9   55s
   232   156 -799.10689   28    2 -593.94498 -811.22359  36.6%  76.2   61s
   246   160     cutoff   30      -593.94498 -811.22359  36.6%  76.7   66s
   277   172 -801.93939   18    7 -593.94498 -810.82459  36.5%  78.6   75s
   301   181 -800.65779   25    5 -593.94498 -810.82459  36.5%  78.5   80s
   335   201     cutoff   30      -593.94498 -809.71047  36.3%  74.0   87s
   357   201     cutoff   30      -593.94498 -809.62587  36.3%  74.0   98s
*  360   201              30    -607.0899845 -809.62587  33.4%  74.4   99s
   363   203     cutoff   30      -607.08998 -809.59687  33.4%  74.7  102s
   373   203     cutoff   30      -607.08998 -809.51483  33.3%  74.8  107s
   381   205 -803.08020   20    6 -607.08998 -809.28163  33.3%  75.7  110s
   426   229     cutoff   30      -607.08998 -809.16858  33.3%  72.5  123s
   440   228     cutoff   30      -607.08998 -808.93544  33.2%  72.7  131s
   455   230     cutoff   30      -607.08998 -808.86827  33.2%  73.3  139s
   457   231     cutoff   30      -607.08998 -808.86823  33.2%  73.6  141s
   499   261     cutoff   30      -607.08998 -808.79960  33.2%  71.3  149s
   512   265     cutoff   30      -607.08998 -808.70803  33.2%  71.0  154s
   522   272     cutoff   30      -607.08998 -808.70449  33.2%  71.3  157s
   547   286 -794.72070   28    - -607.08998 -808.70449  33.2%  70.6  160s
   559   290 -794.12922   30    - -607.08998 -808.51022  33.2%  70.2  165s
   565   292     cutoff   30      -607.08998 -808.43512  33.2%  70.6  171s
   578   293     cutoff   30      -607.08998 -808.39830  33.2%  70.4  179s
*  579   293              30    -628.0599843 -808.39830  28.7%  70.7  180s
*  590   297              30    -643.3099835 -808.29530  25.6%  70.9  188s
   595   312 -802.78518    5    2 -643.30998 -808.29530  25.6%  70.8  192s
   612   318 -777.91351   17    - -643.30998 -808.29530  25.6%  69.8  197s
   624   329 -782.20368   18    2 -643.30998 -808.25516  25.6%  69.1  202s
   647   350 -799.78739   12    2 -643.30998 -808.25516  25.6%  68.0  212s
   673   361 -799.78084   25    3 -643.30998 -808.22403  25.6%  66.0  222s
   698   362     cutoff   30      -643.30998 -808.16886  25.6%  65.3  238s
   718   361     cutoff   30      -643.30998 -808.12531  25.6%  65.5  250s
   730   359     cutoff   30      -643.30998 -808.00539  25.6%  65.9  258s
   733   361     cutoff   30      -643.30998 -807.96613  25.6%  66.1  261s
   736   387 -799.90851   16    2 -643.30998 -807.96613  25.6%  66.3  265s
   770   386     cutoff   30      -643.30998 -807.95447  25.6%  64.4  271s
   781   389 -761.19862   30    - -643.30998 -807.94522  25.6%  64.1  276s
   786   388     cutoff   30      -643.30998 -807.92326  25.6%  64.4  282s
   803   395     cutoff   30      -643.30998 -807.89785  25.6%  64.4  290s
   821   400 -800.37056   26    3 -643.30998 -807.76848  25.6%  63.9  297s
   834   421     cutoff   30      -643.30998 -807.74902  25.6%  64.3  304s
   867   419     cutoff   30      -643.30998 -807.69182  25.6%  63.1  312s
   880   422 -802.96227   10    2 -643.30998 -807.67634  25.6%  63.3  322s
   887   425     cutoff   30      -643.30998 -807.67634  25.6%  63.2  326s
   897   425 -782.47908   14    2 -643.30998 -807.67634  25.6%  63.1  333s
   913   436 -761.80176   16    2 -643.30998 -807.67634  25.6%  63.0  345s
   947   453 -730.69501   21    - -643.30998 -807.67634  25.6%  62.1  357s
   961   460 -777.00918   29    - -643.30998 -807.67634  25.6%  61.7  368s
   967   463 -726.93986   24    2 -643.30998 -807.56872  25.5%  61.9  371s
   990   465     cutoff   30      -643.30998 -807.55278  25.5%  61.7  383s
  1000   469     cutoff   30      -643.30998 -807.55134  25.5%  61.6  389s
  1004   478     cutoff   30      -643.30998 -807.54516  25.5%  61.8  392s
  1035   485 -806.85222    9    8 -643.30998 -807.53380  25.5%  61.3  400s
  1046   486 -805.51556   14    8 -643.30998 -807.53380  25.5%  61.4  405s
  1053   498 -805.38508   15    7 -643.30998 -807.53380  25.5%  61.5  412s
  1065   506 -803.35672   18    8 -643.30998 -807.53380  25.5%  61.4  417s
  1083   519 -802.07730   23    4 -643.30998 -807.53380  25.5%  60.9  427s
  1112   530     cutoff   30      -643.30998 -807.43966  25.5%  60.6  442s
  1124   532     cutoff   30      -643.30998 -807.43157  25.5%  60.4  445s
  1134   531 -791.46979   29    2 -643.30998 -807.41140  25.5%  60.3  452s
  1149   534     cutoff   30      -643.30998 -807.38460  25.5%  60.6  461s
  1159   559     cutoff   30      -643.30998 -807.32819  25.5%  60.7  466s
  1199   559     cutoff   30      -643.30998 -807.26563  25.5%  60.0  475s
  1218   558     cutoff   30      -643.30998 -807.24327  25.5%  60.3  486s
  1232   564     cutoff   30      -643.30998 -807.22018  25.5%  60.6  495s
  1271   585     cutoff   30      -643.30998 -807.13152  25.5%  60.4  504s
  1282   590     cutoff   30      -643.30998 -807.12349  25.5%  60.6  511s
  1293   600     cutoff   30      -643.30998 -807.10519  25.5%  60.8  519s
  1321   603     cutoff   30      -643.30998 -807.05308  25.5%  60.9  530s
  1352   607 -800.21955   28    3 -643.30998 -807.03305  25.5%  60.7  547s
  1372   612     cutoff   30      -643.30998 -806.99909  25.4%  61.2  559s
  1387   625     cutoff   30      -643.30998 -806.92387  25.4%  61.5  567s
  1408   632     cutoff   30      -643.30998 -806.79254  25.4%  61.3  574s
  1428   632     cutoff   30      -643.30998 -806.74387  25.4%  61.3  583s
  1435   635 -688.90351   29    2 -643.30998 -806.70433  25.4%  61.6  587s
  1447   639     cutoff   30      -643.30998 -806.70262  25.4%  61.7  596s
  1465   643     cutoff   30      -643.30998 -806.62564  25.4%  61.5  602s
  1476   656     cutoff   30      -643.30998 -806.59314  25.4%  61.6  611s
  1507   674     cutoff   30      -643.30998 -806.59188  25.4%  61.6  620s
  1543   681     cutoff   30      -643.30998 -806.55862  25.4%  61.1  631s
  1565   686 -800.06812   24    3 -643.30998 -806.47810  25.4%  61.1  643s
  1586   703 -799.20488   13    2 -643.30998 -806.33296  25.3%  61.2  655s
  1608   706 -794.03717   26    4 -643.30998 -806.32925  25.3%  60.8  660s
  1618   718     cutoff   30      -643.30998 -806.30381  25.3%  61.1  671s
  1655   721     cutoff   30      -643.30998 -806.28734  25.3%  60.9  687s
  1662   723     cutoff   30      -643.30998 -806.20798  25.3%  61.0  690s
  1682   732     cutoff   30      -643.30998 -806.20605  25.3%  61.2  703s
  1694   741 -801.40439   23    6 -643.30998 -806.19708  25.3%  61.4  710s
  1719   748     cutoff   30      -643.30998 -806.11333  25.3%  61.6  720s
  1750   758 -795.38592   23    2 -643.30998 -806.05224  25.3%  61.5  734s
  1776   768     cutoff   30      -643.30998 -806.01834  25.3%  61.2  747s
  1813   808 -794.70393   13    2 -643.30998 -805.97990  25.3%  61.1  765s
  1863   819 -763.02426   28    2 -643.30998 -805.95618  25.3%  60.3  777s
  1877   822     cutoff   30      -643.30998 -805.88708  25.3%  60.4  781s
  1899   841     cutoff   30      -643.30998 -805.86173  25.3%  60.3  795s
  1939   870     cutoff   30      -643.30998 -805.81866  25.3%  59.9  810s
  1959   874     cutoff   30      -643.30998 -805.74509  25.2%  59.8  815s
  1980   867     cutoff   30      -643.30998 -805.73803  25.2%  59.5  822s
  1993   872     cutoff   30      -643.30998 -805.64015  25.2%  59.5  829s
  2011   889     cutoff   30      -643.30998 -805.61115  25.2%  59.9  845s
  2046   900     cutoff   30      -643.30998 -805.55269  25.2%  59.5  860s
  2084   911     cutoff   30      -643.30998 -805.44675  25.2%  59.5  882s
  2123   943     cutoff   30      -643.30998 -805.38229  25.2%  59.4  904s
  2152   950     cutoff   30      -643.30998 -805.34922  25.2%  59.4  914s
  2186   958     cutoff   30      -643.30998 -805.31195  25.2%  59.1  927s
  2218   970 -799.09105   18    2 -643.30998 -805.24354  25.2%  59.3  948s
  2238   978     cutoff   29      -643.30998 -805.24354  25.2%  59.1  959s
  2247   979 -777.65939   22    2 -643.30998 -805.24327  25.2%  59.1  969s
  2278   983     cutoff   30      -643.30998 -805.20570  25.2%  59.2  992s
  2298   992     cutoff   30      -643.30998 -805.08412  25.1%  59.1 1004s
  2307  1001     cutoff   30      -643.30998 -805.06227  25.1%  59.2 1015s
  2354  1024 -782.77379   13    2 -643.30998 -805.01174  25.1%  59.1 1041s
  2389  1035     cutoff   30      -643.30998 -804.91505  25.1%  59.0 1058s
  2424  1045     cutoff   30      -643.30998 -804.85585  25.1%  59.2 1077s
  2450  1069     cutoff   30      -643.30998 -804.79502  25.1%  59.3 1094s
  2515  1073     cutoff   30      -643.30998 -804.76462  25.1%  58.8 1123s
  2535  1080 -778.48960   30    - -643.30998 -804.72809  25.1%  59.0 1134s
  2547  1086 -647.76998   30    - -643.30998 -804.72227  25.1%  59.1 1157s
  2572  1094     cutoff   30      -643.30998 -804.55330  25.1%  59.1 1165s
  2585  1115     cutoff   30      -643.30998 -804.53181  25.1%  59.2 1182s
  2647  1127     cutoff   30      -643.30998 -804.42676  25.0%  59.2 1212s
  2682  1154 -798.31290   24    2 -643.30998 -804.18184  25.0%  59.4 1237s
  2709  1163 -798.90848   21    2 -643.30998 -804.07453  25.0%  59.2 1249s
  2741  1186     cutoff   30      -643.30998 -804.07330  25.0%  59.1 1269s
  2817  1198     cutoff   30      -643.30998 -804.03625  25.0%  58.9 1306s
  2846  1217     cutoff   30      -643.30998 -803.85130  25.0%  59.1 1329s
  2859  1219     cutoff   30      -643.30998 -803.81862  25.0%  59.2 1332s
  2891  1228 -800.87172   23   21 -643.30998 -803.81862  25.0%  59.3 1396s
  2893  1229 -799.50918   26   27 -643.30998 -803.81862  25.0%  59.2 1462s
  2894  1230 -801.04383   22   27 -643.30998 -803.81862  25.0%  59.2 1466s
  2896  1232 infeasible   15      -643.30998 -803.81862  25.0%  59.5 1544s
  2898  1234 -803.81862   16   10 -643.30998 -803.81862  25.0%  59.7 1577s
  2900  1235 -798.69115   17   10 -643.30998 -803.81862  25.0%  59.7 1599s
  2902  1234     cutoff   17      -643.30998 -803.81862  25.0%  59.8 1625s
  2904  1236 -798.49199   18   10 -643.30998 -803.81862  25.0%  59.9 1657s
  2906  1237 -795.40419   18    2 -643.30998 -803.81862  25.0%  60.0 1695s
  2909  1238 -795.22492   19    3 -643.30998 -803.81862  25.0%  60.2 1745s
  2912  1240 -793.98872   20    2 -643.30998 -803.81862  25.0%  60.3 1774s
  2915  1242 -795.14215   21    2 -643.30998 -803.81862  25.0%  60.5 1792s
  2918  1245 -794.85905   22    4 -643.30998 -803.81862  25.0%  60.5 1807s
  2922  1248 -797.02039   24   12 -643.30998 -803.81862  25.0%  60.6 1829s
  2926  1250 -794.92020   25    2 -643.30998 -803.81862  25.0%  60.8 1846s
  2930  1253 -796.67487   27   11 -643.30998 -803.81862  25.0%  60.8 1867s
  2934  1257 -792.48453   28    2 -643.30998 -803.81862  25.0%  60.9 1881s
  2939  1262 -790.92485   30    2 -643.30998 -803.81862  25.0%  61.0 1893s
  2946  1268 -795.76429   33    7 -643.30998 -803.81862  25.0%  61.2 1913s
  2954  1273 -795.52285   36    6 -643.30998 -803.81862  25.0%  61.4 1921s
  2962  1280 -794.93922   39    5 -643.30998 -803.81862  25.0%  61.5 1928s
  2972  1283 -789.75474   42    3 -643.30998 -803.81862  25.0%  61.6 1934s
  2980  1281 -803.81862   27    9 -643.30998 -803.81862  25.0%  61.7 1936s
  2982  1282     cutoff   45      -643.30998 -803.81862  25.0%  61.8 1945s
  2991  1288 -803.81862   22   13 -643.30998 -803.81862  25.0%  62.0 1959s
  2998  1292 -803.81862   27   10 -643.30998 -803.81862  25.0%  62.0 1972s
  3005  1305 -803.61200   28    2 -643.30998 -803.81862  25.0%  62.2 1981s
  3020  1321 -799.28067   38    6 -643.30998 -803.81862  25.0%  62.3 1990s
  3045  1313     cutoff   43      -643.30998 -803.81862  25.0%  62.4 1998s
  3074  1304 -753.38142   46    2 -643.30998 -803.81862  25.0%  62.5 2014s
  3091  1301     cutoff   46      -643.30998 -803.81862  25.0%  62.7 2016s
  3103  1302     cutoff   48      -643.30998 -803.81862  25.0%  63.0 2028s
  3112  1317 -774.57343   27    3 -643.30998 -803.81862  25.0%  63.4 2036s
  3130  1323 -756.50035   37    5 -643.30998 -803.81862  25.0%  63.5 2043s
  3147  1322 -780.19097   34    8 -643.30998 -803.81862  25.0%  63.5 2049s
  3166  1329 -751.54608   44    2 -643.30998 -803.81862  25.0%  63.5 2063s
  3201  1335 -750.38632   47    2 -643.30998 -803.81862  25.0%  63.5 2078s
  3232  1334     cutoff   48      -643.30998 -803.81862  25.0%  63.7 2094s
  3247  1331     cutoff   48      -643.30998 -803.81862  25.0%  63.8 2097s
  3274  1328 -780.02823   36    2 -643.30998 -803.81862  25.0%  63.8 2113s
  3288  1329     cutoff   49      -643.30998 -803.81862  25.0%  63.9 2120s
  3292  1335 -780.00024   39    2 -643.30998 -803.81862  25.0%  63.9 2132s
  3309  1333 -778.14701   22    5 -643.30998 -803.81862  25.0%  64.0 2136s
  3328  1344 -773.05605   44    2 -643.30998 -803.81862  25.0%  63.9 2157s
  3340  1343 -753.63084   30    2 -643.30998 -803.81862  25.0%  64.0 2161s
  3364  1340     cutoff   47      -643.30998 -803.81862  25.0%  63.8 2177s
  3378  1346 -736.85591   47    2 -643.30998 -803.81862  25.0%  64.0 2194s
  3398  1346     cutoff   47      -643.30998 -803.81862  25.0%  63.9 2204s
  3407  1352     cutoff   48      -643.30998 -803.81862  25.0%  63.9 2217s
  3424  1350 -701.16104   47    2 -643.30998 -803.81862  25.0%  63.9 2222s
  3431  1362 -783.76863   38    2 -643.30998 -803.81862  25.0%  64.0 2237s
  3453  1360     cutoff   48      -643.30998 -803.81862  25.0%  63.9 2244s
  3467  1381 -780.22870   46    2 -643.30998 -803.81862  25.0%  64.0 2263s
  3517  1378     cutoff   47      -643.30998 -803.81862  25.0%  63.8 2291s
  3538  1377 -798.39399   33    2 -643.30998 -803.81862  25.0%  64.1 2308s
  3577  1392 -778.25379   41    2 -643.30998 -803.81862  25.0%  64.1 2350s
  3603  1392 -753.57367   40    2 -643.30998 -803.81862  25.0%  64.0 2361s
  3627  1407 -767.28655   46    2 -643.30998 -803.81862  25.0%  64.1 2386s
  3663  1429     cutoff   47      -643.30998 -803.81862  25.0%  64.1 2414s
  3681  1427 -761.09270   40    2 -643.30998 -803.81862  25.0%  64.2 2419s
  3721  1448 -737.43155   47    2 -643.30998 -803.81862  25.0%  64.0 2444s
  3742  1442     cutoff   47      -643.30998 -803.81862  25.0%  64.0 2446s
  3765  1435     cutoff   48      -643.30998 -803.81862  25.0%  64.1 2466s
  3828  1449 -781.12041   24    3 -643.30998 -803.81862  25.0%  64.1 2520s
  3879  1457 -782.13961   38    2 -643.30998 -803.81862  25.0%  64.0 2560s
  3937  1463 -770.90552   45    2 -643.30998 -803.81862  25.0%  63.8 2606s
  3968  1462 -716.59765   48    2 -643.30998 -803.81862  25.0%  63.8 2619s
  3984  1481     cutoff   47      -643.30998 -803.81862  25.0%  64.0 2643s
  4040  1491     cutoff   47      -643.30998 -803.81862  25.0%  63.9 2683s
  4101  1508     cutoff   48      -643.30998 -803.81862  25.0%  63.9 2723s
  4129  1503 -773.44051   44    2 -643.30998 -803.81862  25.0%  63.8 2730s
  4172  1502 -779.79644   45    2 -643.30998 -803.81862  25.0%  63.8 2772s
  4236  1510     cutoff   46      -643.30998 -803.81862  25.0%  63.8 2833s
  4300  1522     cutoff   47      -643.30998 -803.81862  25.0%  64.0 2888s
  4369  1538     cutoff   48      -643.30998 -803.76678  24.9%  64.1 2945s
  4440  1541     cutoff   46      -643.30998 -803.66016  24.9%  64.2 2991s
  4521  1547     cutoff   47      -643.30998 -803.47536  24.9%  64.3 3056s
  4599  1559 -756.42850   44    2 -643.30998 -803.32538  24.9%  64.2 3120s
  4628  1559 -768.32445   46    2 -643.30998 -803.09241  24.8%  64.3 3134s
  4672  1580 -746.97072   47    2 -643.30998 -803.07182  24.8%  64.2 3179s
  4773  1598 -802.14626   41    3 -643.30998 -802.96870  24.8%  64.2 3253s
  4894  1599     cutoff   47      -643.30998 -802.85345  24.8%  64.2 3324s
  4950  1597     cutoff   47      -643.30998 -802.51869  24.7%  64.3 3346s
  5013  1608     cutoff   47      -643.30998 -802.49286  24.7%  64.4 3395s
  5067  1604     cutoff   48      -643.30998 -802.48495  24.7%  64.4 3416s
  5097  1612 -762.72779   46    2 -643.30998 -802.32357  24.7%  64.3 3460s
  5215  1614     cutoff   47      -643.30998 -802.12081  24.7%  64.2 3544s
  5275  1614 -794.49023   41    2 -643.30998 -802.02026  24.7%  64.4 3571s
  5336  1615 -756.16749   47    2 -643.30998 -801.79290  24.6%  64.5 3629s
  5406  1615 -779.00904   46    2 -643.30998 -801.57636  24.6%  64.5 3662s
  5439  1636     cutoff   48      -643.30998 -801.55653  24.6%  64.6 3726s
  5505  1630 -776.47889   29    2 -643.30998 -801.40917  24.6%  64.6 3749s
  5561  1628 -781.03108   36    2 -643.30998 -801.27858  24.6%  64.6 3811s
  5664  1611 -777.17100   42    2 -643.30998 -800.89286  24.5%  64.8 3902s
  5733  1613 -798.92750   40    5 -643.30998 -800.36942  24.4%  64.8 3938s
  5793  1619     cutoff   47      -643.30998 -800.24038  24.4%  65.0 4003s
  5952  1591 -772.47853   29    2 -643.30998 -799.96405  24.4%  65.1 4110s
* 5968  1525              33    -646.8849832 -799.96405  23.7%  65.3 4119s
  6079  1522     cutoff   47      -646.88498 -799.61934  23.6%  65.4 4216s
  6151  1519     cutoff   47      -646.88498 -799.35864  23.6%  65.4 4246s
  6208  1531     cutoff   48      -646.88498 -799.33693  23.6%  65.4 4322s
  6263  1525 -772.21348   27    2 -646.88498 -799.07941  23.5%  65.4 4339s
  6310  1532     cutoff   47      -646.88498 -799.05660  23.5%  65.5 4412s
  6452  1569 -742.33193   47    2 -646.88498 -798.43977  23.4%  65.5 4528s
  6516  1574     cutoff   47      -646.88498 -798.14405  23.4%  65.7 4535s
  6571  1569     cutoff   48      -646.88498 -798.12404  23.4%  65.7 4615s
  6703  1564 -747.09910   47    2 -646.88498 -797.24635  23.2%  66.1 4718s
  6783  1579     cutoff   47      -646.88498 -796.01250  23.1%  66.5 4740s
  6840  1607     cutoff   48      -646.88498 -795.98757  23.0%  66.8 4827s
  6910  1625 -772.25787   41    2 -646.88498 -795.79591  23.0%  66.9 4850s
  7020  1619 -737.09810   47    2 -646.88498 -794.46668  22.8%  66.9 4947s
  7089  1636 -773.29641   39    2 -646.88498 -793.90089  22.7%  67.0 4970s
  7160  1623     cutoff   48      -646.88498 -793.33710  22.6%  67.2 5065s
  7239  1637     cutoff   47      -646.88498 -789.82952  22.1%  67.4 5085s
  7316  1639 -782.07532   30    - -646.88498 -789.66544  22.1%  67.6 5204s
  7504  1727     cutoff   47      -646.88498 -785.55000  21.4%  67.7 5362s
  7612  1783     cutoff   47      -646.88498 -785.09668  21.4%  67.5 5475s
  7759  1820 -779.66563   35    2 -646.88498 -785.01364  21.4%  67.3 5630s
  7838  1854     cutoff   47      -646.88498 -784.68160  21.3%  67.2 5678s
  7925  1912 -751.44721   47    2 -646.88498 -784.56423  21.3%  67.1 5805s
  7973  1927     cutoff   49      -646.88498 -784.49291  21.3%  67.1 5826s
  8049  1970     cutoff   48      -646.88498 -784.42227  21.3%  67.0 5943s
  8106  1995     cutoff   47      -646.88498 -784.30919  21.2%  67.0 5980s
  8172  2018 -723.94392   48    2 -646.88498 -784.18111  21.2%  66.8 6098s
  8239  2045 -760.48096   46    2 -646.88498 -784.07296  21.2%  66.7 6134s
  8280  2071     cutoff   49      -646.88498 -783.93208  21.2%  66.8 6248s
  8434  2143 -755.17268   45    2 -646.88498 -783.55592  21.1%  66.7 6428s
  8593  2211     cutoff   47      -646.88498 -783.33506  21.1%  66.4 6611s
  8709  2251     cutoff   47      -646.88498 -783.29051  21.1%  66.2 6667s
  8775  2273     cutoff   48      -646.88498 -783.17923  21.1%  66.2 6793s
  8825  2294 -774.27939   46    2 -646.88498 -783.01865  21.0%  66.2 6821s
  8901  2317 -719.22937   48    2 -646.88498 -783.01564  21.0%  66.2 6961s
  9049  2395     cutoff   49      -646.88498 -782.87991  21.0%  66.1 7142s

Cutting planes:
  Lazy constraints: 350599

Explored 9186 nodes (615082 simplex iterations) in 7204.07 seconds
Thread count was 4 (of 4 available processors)

Solution count 10: -646.885 -643.31 -628.06 ... -522.72

Time limit reached
Best objective -6.468849832245e+02, best bound -7.827496058515e+02, gap 21.0029%

User-callback calls 189291, time in user-callback 3540.07 sec
